1 -1 2 0
1 1 3 0
1 4 -5 0
1 -4 6 0
1 -4 7 0
1 -4 8 0
1 -4 -9 0
1 6 10 0
1 6 -2 0
1 6 7 0
1 6 4 0
1 -6 -3 0
1 -6 -11 0
1 7 12 0
1 7 13 0
1 7 14 0
1 -7 -6 0
1 -7 15 0
1 7 -16 0
1 -7 -17 0
1 7 -18 0
1 -7 -11 0
1 11 -13 0
1 -11 -14 0
1 -11 6 0
1 -11 16 0
1 -11 19 0
1 -11 -17 0
1 11 -4 0
1 -2 -20 0
1 2 -1 0
1 -2 -16 0
1 2 -21 0
1 -2 22 0
1 -2 -3 0
1 3 20 0
1 -3 -6 0
1 3 -2 0
1 3 4 0
1 17 23 0
1 -17 -14 0
1 -17 9 0
1 -17 -22 0
1 -14 -23 0
1 -14 -5 0
1 -14 -8 0
1 -14 -9 0
1 -14 -17 0
1 -14 11 0
1 -19 -23 0
1 19 -5 0
1 19 13 0
1 19 -24 0
1 -19 -7 0
1 19 8 0
1 19 25 0
1 -13 -23 0
1 -13 -5 0
1 13 -26 0
1 -13 9 0
1 -13 -19 0
1 -13 11 0
1 -9 27 0
1 -9 -28 0
1 -9 29 0
1 9 -30 0
1 9 -19 0
1 -9 -31 0
1 -5 27 0
1 5 32 0
1 5 14 0
1 -5 17 0
1 -8 -23 0
1 8 33 0
1 -8 -12 0
1 -8 14 0
1 8 -28 0
1 -8 34 0
1 8 -17 0
1 -23 -33 0
1 -23 35 0
1 23 -12 0
1 -23 -14 0
1 23 6 0
1 23 28 0
1 23 8 0
1 23 -34 0
1 23 -16 0
1 23 -4 0
1 -23 -31 0
1 -36 -37 0
1 -36 -25 0
1 27 12 0
1 -27 -24 0
1 27 -36 0
1 27 -9 0
1 -27 -25 0
1 -29 38 0
1 -29 -5 0
1 29 24 0
1 -29 9 0
1 -29 -39 0
1 -39 38 0
1 -39 40 0
1 39 -29 0
1 39 -36 0
1 -39 41 0
1 37 27 0
1 -37 -13 0
1 -37 -40 0
1 -37 19 0
1 37 -42 0
1 25 38 0
1 25 27 0
1 -25 24 0
1 25 28 0
1 25 -29 0
1 25 36 0
1 -25 19 0
1 25 43 0
1 25 -44 0
1 -24 38 0
1 -24 27 0
1 24 45 0
1 24 -40 0
1 24 -46 0
1 -24 -28 0
1 24 29 0
1 24 25 0
1 -24 -42 0
1 -24 -44 0
1 47 48 0
1 -47 -49 0
1 -47 50 0
1 -47 -18 0
1 -47 -51 0
1 -49 -48 0
1 49 52 0
1 -49 50 0
1 53 54 0
1 53 55 0
1 53 56 0
1 53 4 0
1 53 -57 0
1 -10 48 0
1 -10 55 0
1 10 -52 0
1 -10 56 0
1 10 -58 0
1 48 10 0
1 48 -50 0
1 -48 -59 0
1 -48 21 0
1 -48 -53 0
1 48 47 0
1 50 -20 0
1 50 -60 0
1 50 59 0
1 -50 22 0
1 61 62 0
1 -61 49 0
1 -61 -63 0
1 61 -47 0
1 -52 -61 0
1 -52 64 0
1 -52 65 0
1 52 10 0
1 -52 -49 0
1 -52 -66 0
1 52 -59 0
1 52 -67 0
1 52 -63 0
1 -52 53 0
1 22 -48 0
1 22 54 0
1 22 2 0
1 -22 50 0
1 22 -58 0
1 22 3 0
1 20 54 0
1 20 -55 0
1 20 -2 0
1 -20 -22 0
1 20 3 0
1 -21 48 0
1 -21 54 0
1 21 -68 0
1 -21 -50 0
1 21 56 0
1 21 -19 0
1 21 58 0
1 -21 -67 0
1 -21 69 0
1 21 -70 0
1 -21 -3 0
1 -26 -58 0
1 -26 13 0
1 26 54 0
1 -26 -71 0
1 -26 68 0
1 -26 50 0
1 26 21 0
1 -26 69 0
1 -26 70 0
1 -55 12 0
1 -55 20 0
1 55 72 0
1 -55 -73 0
1 55 -34 0
1 -55 22 0
1 -55 -53 0
1 58 -74 0
1 -58 33 0
1 58 12 0
1 58 -55 0
1 -58 10 0
1 -58 21 0
1 58 -53 0
1 54 -64 0
1 54 26 0
1 -54 75 0
1 54 -20 0
1 54 10 0
1 -54 -73 0
1 54 -59 0
1 54 21 0
1 -56 76 0
1 -56 -26 0
1 -56 20 0
1 -56 -73 0
1 -56 59 0
1 -56 -21 0
1 -56 -77 0
1 -16 -23 0
1 -16 -55 0
1 16 -68 0
1 -16 -78 0
1 -16 -7 0
1 16 70 0
1 12 -23 0
1 -12 -68 0
1 -12 -2 0
1 12 8 0
1 -12 -16 0
1 12 58 0
1 -12 -69 0
1 -12 3 0
1 -12 -11 0
1 -34 -79 0
1 -34 -68 0
1 34 80 0
1 -34 8 0
1 -34 29 0
1 -34 -70 0
1 -34 -81 0
1 33 79 0
1 -33 -76 0
1 33 -68 0
1 33 8 0
1 -33 34 0
1 -33 58 0
1 33 -69 0
1 -33 70 0
1 33 81 0
1 78 26 0
1 -78 82 0
1 -78 46 0
1 78 83 0
1 78 -34 0
1 78 70 0
1 -78 44 0
1 70 -33 0
1 -70 -12 0
1 70 -78 0
1 70 -82 0
1 70 34 0
1 -68 -26 0
1 -68 82 0
1 68 73 0
1 -68 34 0
1 68 -21 0
1 68 -84 0
1 -69 74 0
1 69 12 0
1 -69 26 0
1 69 -68 0
1 -69 -82 0
1 -69 -85 0
1 -69 -73 0
1 -69 34 0
1 69 -21 0
1 69 -86 0
1 69 84 0
1 -69 -87 0
1 -28 79 0
1 -28 5 0
1 -28 -73 0
1 -28 8 0
1 -28 -15 0
1 28 9 0
1 28 70 0
1 -28 81 0
1 28 -31 0
1 31 -23 0
1 -31 24 0
1 -31 80 0
1 31 15 0
1 -31 -25 0
1 46 79 0
1 46 35 0
1 -46 32 0
1 -46 -15 0
1 46 -25 0
1 46 -44 0
1 -46 81 0
1 44 -35 0
1 -44 46 0
1 -44 80 0
1 -44 15 0
1 44 -30 0
1 44 -25 0
1 44 -87 0
1 15 79 0
1 -15 33 0
1 -15 88 0
1 15 -89 0
1 15 46 0
1 -15 28 0
1 15 -7 0
1 -15 90 0
1 15 34 0
1 15 -91 0
1 15 92 0
1 79 33 0
1 79 -34 0
1 79 11 0
1 79 91 0
1 -79 -44 0
1 80 33 0
1 80 -88 0
1 -80 93 0
1 80 82 0
1 80 94 0
1 -80 34 0
1 -80 81 0
1 81 -82 0
1 81 -28 0
1 81 95 0
1 -81 -44 0
1 -81 96 0
1 81 -31 0
1 40 79 0
1 -40 35 0
1 40 -82 0
1 -40 -15 0
1 -40 30 0
1 -40 25 0
1 -42 79 0
1 -42 35 0
1 42 -32 0
1 42 -24 0
1 -42 -25 0
1 -42 39 0
1 -42 -84 0
1 89 79 0
1 89 -32 0
1 -89 97 0
1 -89 93 0
1 -89 98 0
1 89 -30 0
1 -89 43 0
1 -92 35 0
1 -92 -45 0
1 92 -97 0
1 92 30 0
1 -92 95 0
1 -30 99 0
1 30 -100 0
1 -30 101 0
1 -30 102 0
1 -30 103 0
1 30 92 0
1 30 42 0
1 -32 104 0
1 32 89 0
1 32 -40 0
1 -32 -46 0
1 32 -42 0
1 98 46 0
1 98 8 0
1 98 100 0
1 98 105 0
1 -98 92 0
1 -98 42 0
1 -98 -44 0
1 -35 -23 0
1 -35 -106 0
1 -35 88 0
1 -35 40 0
1 35 98 0
1 -35 105 0
1 35 -91 0
1 -35 -42 0
1 35 -44 0
1 -99 -45 0
1 99 -97 0
1 99 -88 0
1 -99 30 0
1 -99 103 0
1 99 41 0
1 103 32 0
1 -103 99 0
1 -103 97 0
1 103 -30 0
1 103 43 0
1 103 -91 0
1 -107 -97 0
1 -107 101 0
1 107 43 0
1 107 41 0
1 -101 107 0
1 101 -97 0
1 101 105 0
1 41 -108 0
1 -41 -97 0
1 -41 -109 0
1 41 -101 0
1 41 -92 0
1 -97 -108 0
1 97 37 0
1 -97 99 0
1 -97 89 0
1 -97 109 0
1 97 -101 0
1 97 103 0
1 97 92 0
1 -97 41 0
1 43 108 0
1 -43 110 0
1 43 107 0
1 43 -99 0
1 -43 109 0
1 -43 111 0
1 -43 100 0
1 -43 -101 0
1 43 112 0
1 43 -92 0
1 -45 108 0
1 -45 113 0
1 -45 107 0
1 45 -99 0
1 45 -43 0
1 45 92 0
1 51 114 0
1 -51 115 0
1 -51 116 0
1 51 117 0
1 51 47 0
1 -51 118 0
1 -119 114 0
1 -119 -115 0
1 119 116 0
1 119 117 0
1 57 114 0
1 -57 -120 0
1 57 -121 0
1 57 117 0
1 57 -53 0
1 57 122 0
1 123 124 0
1 -123 -122 0
1 123 -117 0
1 -123 -125 0
1 -117 71 0
1 117 65 0
1 117 123 0
1 117 126 0
1 117 63 0
1 115 117 0
1 -115 -127 0
1 115 -63 0
1 115 57 0
1 116 128 0
1 -116 -129 0
1 -116 123 0
1 116 -130 0
1 116 -131 0
1 116 -132 0
1 -114 129 0
1 -114 -123 0
1 114 -130 0
1 114 131 0
1 114 57 0
1 -114 -51 0
1 -63 61 0
1 -63 -115 0
1 63 121 0
1 -63 52 0
1 -65 -20 0
1 65 -121 0
1 -65 117 0
1 65 63 0
1 65 122 0
1 -67 -61 0
1 -67 120 0
1 67 121 0
1 -67 133 0
1 67 21 0
1 -67 117 0
1 -67 125 0
1 67 134 0
1 -71 26 0
1 71 115 0
1 71 129 0
1 71 -135 0
1 71 -133 0
1 -71 -125 0
1 -71 -122 0
1 -122 76 0
1 122 123 0
1 -122 -121 0
1 122 -136 0
1 122 -59 0
1 -122 67 0
1 122 -63 0
1 122 57 0
1 -121 71 0
1 -121 65 0
1 -121 137 0
1 -121 -138 0
1 121 -122 0
1 -121 63 0
1 -125 139 0
1 125 140 0
1 -125 -127 0
1 -125 -71 0
1 -125 65 0
1 -125 -123 0
1 125 -141 0
1 125 -57 0
1 120 140 0
1 -120 -127 0
1 120 71 0
1 120 -65 0
1 -120 -123 0
1 120 136 0
1 120 141 0
1 -120 -67 0
1 -120 57 0
1 -59 -61 0
1 59 48 0
1 -59 54 0
1 -59 -121 0
1 59 135 0
1 -59 133 0
1 -59 52 0
1 59 56 0
1 -59 -134 0
1 -64 -61 0
1 64 -12 0
1 -64 48 0
1 -64 54 0
1 -64 -121 0
1 64 135 0
1 -64 -52 0
1 -64 -56 0
1 64 -122 0
1 138 62 0
1 -138 -142 0
1 138 -121 0
1 138 -135 0
1 138 133 0
1 -138 -66 0
1 -138 34 0
1 76 33 0
1 -76 -62 0
1 -76 140 0
1 -76 -135 0
1 76 -133 0
1 -76 66 0
1 76 -138 0
1 76 56 0
1 76 60 0
1 76 -122 0
1 -76 -134 0
1 -143 74 0
1 -143 -144 0
1 -143 73 0
1 143 138 0
1 143 -67 0
1 143 145 0
1 133 74 0
1 -133 -143 0
1 -133 -76 0
1 133 64 0
1 133 -71 0
1 -133 -146 0
1 -133 85 0
1 133 147 0
1 133 73 0
1 -133 67 0
1 133 87 0
1 134 148 0
1 134 -71 0
1 134 -135 0
1 -134 -146 0
1 134 -138 0
1 134 -67 0
1 -134 145 0
1 135 64 0
1 135 71 0
1 -135 -146 0
1 -135 -149 0
1 135 -136 0
1 135 -67 0
1 135 -145 0
1 -135 -134 0
1 -135 -150 0
1 -73 142 0
1 73 -68 0
1 -73 -133 0
1 73 -58 0
1 -74 -143 0
1 -74 54 0
1 -74 -55 0
1 74 -68 0
1 -74 -73 0
1 -74 -58 0
1 -85 -75 0
1 85 72 0
1 -85 46 0
1 -85 -133 0
1 -85 66 0
1 85 77 0
1 -85 151 0
1 85 -69 0
1 -85 87 0
1 87 62 0
1 87 -75 0
1 87 72 0
1 87 68 0
1 -87 -85 0
1 -87 -66 0
1 -87 77 0
1 -142 -74 0
1 -142 76 0
1 142 93 0
1 -142 82 0
1 142 -85 0
1 -142 -60 0
1 142 -95 0
1 142 -84 0
1 -60 -142 0
1 60 152 0
1 -60 -73 0
1 60 -50 0
1 -60 138 0
1 60 -95 0
1 60 -84 0
1 -62 74 0
1 -62 -61 0
1 -62 -76 0
1 62 -153 0
1 -62 -152 0
1 62 -146 0
1 62 85 0
1 62 66 0
1 -62 -138 0
1 -62 -154 0
1 62 -155 0
1 -62 145 0
1 -66 -62 0
1 -66 156 0
1 -66 -52 0
1 66 -138 0
1 66 -155 0
1 66 -87 0
1 -82 75 0
1 -82 -72 0
1 -82 -68 0
1 -82 -80 0
1 82 151 0
1 82 -69 0
1 82 -70 0
1 -84 -142 0
1 -84 75 0
1 84 72 0
1 84 68 0
1 84 -70 0
1 -84 -82 0
1 -84 -80 0
1 -84 -60 0
1 -84 151 0
1 -84 145 0
1 -93 86 0
1 -93 72 0
1 -93 89 0
1 -93 157 0
1 -93 -83 0
1 93 -77 0
1 93 -151 0
1 95 -93 0
1 95 -157 0
1 -95 83 0
1 -95 -60 0
1 95 77 0
1 -95 158 0
1 -72 159 0
1 72 -88 0
1 72 -93 0
1 -72 82 0
1 -72 -160 0
1 -72 91 0
1 -72 -95 0
1 -72 -84 0
1 -72 87 0
1 -151 -72 0
1 151 -82 0
1 151 105 0
1 151 -84 0
1 151 87 0
1 75 54 0
1 75 -161 0
1 -75 160 0
1 75 -84 0
1 77 -75 0
1 -77 -161 0
1 -77 -93 0
1 -77 -82 0
1 77 -56 0
1 77 -95 0
1 -88 35 0
1 88 -72 0
1 -88 157 0
1 88 83 0
1 -88 98 0
1 -88 -81 0
1 -91 -35 0
1 91 -88 0
1 91 -80 0
1 91 103 0
1 91 151 0
1 91 86 0
1 162 -35 0
1 -162 107 0
1 162 161 0
1 -162 72 0
1 162 157 0
1 -162 -83 0
1 -162 90 0
1 162 -105 0
1 162 -151 0
1 -105 -163 0
1 -105 -162 0
1 -105 83 0
1 105 101 0
1 105 -151 0
1 -105 86 0
1 -105 96 0
1 83 164 0
1 83 162 0
1 83 -88 0
1 -83 78 0
1 -83 -165 0
1 -83 -111 0
1 -83 100 0
1 -83 -91 0
1 -158 164 0
1 -158 -110 0
1 158 162 0
1 158 -88 0
1 -158 93 0
1 -158 -83 0
1 -158 166 0
1 -158 -100 0
1 -158 105 0
1 -158 -91 0
1 158 -95 0
1 -158 -70 0
1 158 -167 0
1 157 -164 0
1 157 -168 0
1 157 159 0
1 157 162 0
1 157 88 0
1 157 -68 0
1 157 -169 0
1 -157 -166 0
1 157 -170 0
1 -157 -160 0
1 -86 159 0
1 -86 -157 0
1 86 -166 0
1 -86 -170 0
1 86 -95 0
1 86 -171 0
1 113 163 0
1 -113 35 0
1 -113 -159 0
1 -113 83 0
1 -113 -94 0
1 -113 100 0
1 113 -98 0
1 -100 163 0
1 -100 32 0
1 100 -45 0
1 100 83 0
1 100 -98 0
1 -100 -160 0
1 100 -158 0
1 -110 -104 0
1 110 45 0
1 110 -172 0
1 -110 43 0
1 -110 96 0
1 -111 -163 0
1 -111 -106 0
1 111 45 0
1 -111 -83 0
1 111 94 0
1 111 90 0
1 -111 158 0
1 111 96 0
1 -90 113 0
1 90 162 0
1 -90 173 0
1 90 -174 0
1 90 -109 0
1 -90 15 0
1 -90 -100 0
1 -90 175 0
1 -90 176 0
1 90 177 0
1 -163 -108 0
1 163 79 0
1 -163 110 0
1 163 113 0
1 -163 -173 0
1 163 174 0
1 -163 111 0
1 163 100 0
1 163 105 0
1 94 110 0
1 94 113 0
1 -94 -162 0
1 -94 -173 0
1 94 178 0
1 94 166 0
1 -94 100 0
1 -94 -105 0
1 94 -96 0
1 96 179 0
1 -96 164 0
1 -96 110 0
1 96 -113 0
1 -96 -162 0
1 -96 -173 0
1 96 180 0
1 -108 -164 0
1 -108 -97 0
1 -108 -109 0
1 -108 -90 0
1 -108 -102 0
1 -108 -43 0
1 109 -108 0
1 109 163 0
1 109 106 0
1 -109 -104 0
1 -109 -97 0
1 109 -90 0
1 109 -172 0
1 -109 -102 0
1 177 -104 0
1 -177 181 0
1 -177 -174 0
1 -177 -90 0
1 177 -172 0
1 177 112 0
1 177 180 0
1 -174 163 0
1 174 106 0
1 174 181 0
1 174 172 0
1 174 -102 0
1 -174 -112 0
1 -174 -182 0
1 102 -108 0
1 102 -104 0
1 102 183 0
1 102 174 0
1 -102 30 0
1 -102 -184 0
1 -102 185 0
1 -102 186 0
1 -102 177 0
1 104 -110 0
1 104 -183 0
1 -104 -187 0
1 104 -188 0
1 104 -174 0
1 -104 -109 0
1 -104 -111 0
1 -104 -184 0
1 -104 -185 0
1 104 186 0
1 104 -177 0
1 -172 -183 0
1 -172 109 0
1 172 98 0
1 172 -189 0
1 172 190 0
1 -172 -176 0
1 172 -177 0
1 106 191 0
1 106 -192 0
1 106 -173 0
1 -106 174 0
1 106 -109 0
1 106 111 0
1 106 -176 0
1 -106 -177 0
1 186 104 0
1 -186 -181 0
1 186 188 0
1 186 102 0
1 186 112 0
1 186 176 0
1 188 104 0
1 -188 -193 0
1 -188 102 0
1 -188 112 0
1 -188 182 0
1 -188 -186 0
1 185 -104 0
1 -185 -187 0
1 185 193 0
1 -185 102 0
1 187 -182 0
1 -187 -192 0
1 187 -102 0
1 187 -185 0
1 -182 -194 0
1 -182 187 0
1 182 193 0
1 -182 188 0
1 182 -41 0
1 182 -185 0
1 -182 -195 0
1 193 -182 0
1 -193 194 0
1 -193 -97 0
1 193 187 0
1 -193 -188 0
1 -193 -174 0
1 -193 196 0
1 -193 -177 0
1 112 197 0
1 -112 -181 0
1 -112 174 0
1 -112 -196 0
1 112 198 0
1 -112 -199 0
1 -112 -186 0
1 181 -194 0
1 -181 200 0
1 -181 -174 0
1 -181 -196 0
1 181 -198 0
1 181 112 0
1 -181 -177 0
1 118 201 0
1 118 -202 0
1 -118 -203 0
1 -118 204 0
1 118 51 0
1 205 -201 0
1 -205 -119 0
1 -205 -203 0
1 205 -118 0
1 206 -201 0
1 -206 124 0
1 -206 202 0
1 206 207 0
1 206 -203 0
1 -206 -208 0
1 124 123 0
1 -124 207 0
1 124 203 0
1 124 204 0
1 -124 209 0
1 202 129 0
1 -202 210 0
1 -202 -211 0
1 202 -132 0
1 -204 -129 0
1 204 124 0
1 -204 -205 0
1 204 -131 0
1 204 212 0
1 -204 206 0
1 204 118 0
1 201 -206 0
1 203 124 0
1 203 -205 0
1 203 206 0
1 -203 118 0
1 132 -114 0
1 132 -213 0
1 132 207 0
1 -132 116 0
1 210 -65 0
1 210 -202 0
1 210 -213 0
1 210 207 0
1 210 116 0
1 210 132 0
1 210 -209 0
1 -131 -214 0
1 -131 215 0
1 131 -114 0
1 -131 -129 0
1 131 -213 0
1 -131 -207 0
1 131 216 0
1 -131 217 0
1 -131 209 0
1 129 -215 0
1 -129 114 0
1 -129 71 0
1 129 -131 0
1 -129 204 0
1 129 208 0
1 -207 218 0
1 207 -140 0
1 -207 -210 0
1 -207 -124 0
1 207 219 0
1 -207 -141 0
1 207 130 0
1 -207 131 0
1 -207 132 0
1 209 220 0
1 209 -218 0
1 209 -129 0
1 -209 -207 0
1 -209 -219 0
1 209 -141 0
1 209 130 0
1 -209 131 0
1 -209 206 0
1 -213 208 0
1 -213 129 0
1 213 210 0
1 -213 -131 0
1 -208 210 0
1 208 124 0
1 208 221 0
1 130 214 0
1 -130 117 0
1 130 -127 0
1 -130 -207 0
1 130 216 0
1 130 217 0
1 130 59 0
1 -130 -116 0
1 -130 125 0
1 -130 -209 0
1 -127 64 0
1 -127 -114 0
1 127 -115 0
1 127 -120 0
1 127 216 0
1 -127 116 0
1 -127 117 0
1 127 209 0
1 -141 215 0
1 141 140 0
1 -141 222 0
1 -141 120 0
1 141 216 0
1 -141 -138 0
1 141 -125 0
1 140 214 0
1 -140 76 0
1 -140 222 0
1 140 -120 0
1 -140 207 0
1 -140 128 0
1 140 126 0
1 -140 -209 0
1 217 129 0
1 217 -223 0
1 217 224 0
1 217 -136 0
1 217 225 0
1 215 127 0
1 -215 -129 0
1 215 -223 0
1 -215 -136 0
1 215 -150 0
1 216 -129 0
1 216 -219 0
1 216 226 0
1 -216 -227 0
1 -214 218 0
1 214 -228 0
1 214 -127 0
1 214 -219 0
1 -214 130 0
1 136 229 0
1 136 -222 0
1 -136 -120 0
1 -136 121 0
1 136 -73 0
1 -136 219 0
1 136 -217 0
1 139 -74 0
1 -139 -218 0
1 -139 222 0
1 139 -121 0
1 139 -135 0
1 -139 136 0
1 -139 -217 0
1 -139 126 0
1 139 -134 0
1 224 215 0
1 -224 -230 0
1 224 -137 0
1 224 -135 0
1 224 -128 0
1 -224 231 0
1 224 -232 0
1 224 150 0
1 -150 233 0
1 -150 -222 0
1 150 137 0
1 -150 224 0
1 -150 217 0
1 150 128 0
1 150 -126 0
1 -150 -134 0
1 -126 -222 0
1 126 234 0
1 -126 -156 0
1 -126 146 0
1 -126 -235 0
1 126 -224 0
1 126 -117 0
1 126 155 0
1 126 -145 0
1 126 -150 0
1 -222 -140 0
1 -222 -156 0
1 222 141 0
1 -222 -145 0
1 222 150 0
1 128 140 0
1 -128 -234 0
1 -128 236 0
1 128 223 0
1 128 -136 0
1 128 116 0
1 -128 -237 0
1 -128 -227 0
1 128 150 0
1 -229 139 0
1 -229 114 0
1 -229 238 0
1 -229 -141 0
1 -146 -137 0
1 -146 82 0
1 146 -135 0
1 -146 133 0
1 146 -66 0
1 -146 126 0
1 146 -145 0
1 146 134 0
1 -145 -143 0
1 -145 -134 0
1 -145 135 0
1 145 -133 0
1 -145 126 0
1 145 -227 0
1 -156 -144 0
1 -156 230 0
1 -156 93 0
1 -156 137 0
1 156 66 0
1 156 -126 0
1 -156 232 0
1 -156 -148 0
1 -155 -144 0
1 -155 222 0
1 155 156 0
1 -155 -149 0
1 -155 -147 0
1 -155 126 0
1 -155 231 0
1 155 -232 0
1 -232 239 0
1 232 -152 0
1 -232 -146 0
1 232 -122 0
1 232 -150 0
1 -137 121 0
1 -137 -156 0
1 -137 240 0
1 -137 -232 0
1 137 150 0
1 -231 -234 0
1 231 -156 0
1 -231 241 0
1 -231 242 0
1 -231 155 0
1 230 -239 0
1 -230 -156 0
1 230 -224 0
1 -230 -243 0
1 -152 -62 0
1 152 -234 0
1 -152 137 0
1 -152 149 0
1 -152 -66 0
1 -152 77 0
1 152 -232 0
1 154 62 0
1 154 142 0
1 154 -75 0
1 154 147 0
1 154 -91 0
1 154 242 0
1 154 -148 0
1 161 144 0
1 161 244 0
1 -161 -75 0
1 161 -245 0
1 -161 -137 0
1 161 149 0
1 161 147 0
1 -161 246 0
1 161 -77 0
1 161 -247 0
1 161 -232 0
1 247 -161 0
1 247 137 0
1 247 147 0
1 -247 -248 0
1 -247 -246 0
1 247 -105 0
1 247 148 0
1 -144 -143 0
1 -144 168 0
1 -144 159 0
1 144 -161 0
1 144 -156 0
1 144 170 0
1 144 -247 0
1 -147 144 0
1 -147 168 0
1 -147 159 0
1 -147 249 0
1 148 -250 0
1 -148 -251 0
1 -148 -161 0
1 148 -152 0
1 148 -252 0
1 148 247 0
1 -148 -154 0
1 -148 155 0
1 -148 -134 0
1 -149 -251 0
1 -149 -253 0
1 -149 152 0
1 149 156 0
1 -149 254 0
1 -149 -252 0
1 -149 247 0
1 149 154 0
1 -159 113 0
1 159 75 0
1 -159 147 0
1 -159 248 0
1 159 246 0
1 -159 77 0
1 -159 86 0
1 -160 -153 0
1 160 157 0
1 160 147 0
1 -160 100 0
1 -160 241 0
1 -160 -246 0
1 -160 -151 0
1 -168 144 0
1 -168 -110 0
1 -168 -153 0
1 168 244 0
1 168 -157 0
1 -168 147 0
1 168 -170 0
1 -168 246 0
1 168 -255 0
1 170 -144 0
1 -170 153 0
1 170 244 0
1 -170 -256 0
1 -170 111 0
1 170 252 0
1 -170 248 0
1 -170 86 0
1 -244 -164 0
1 244 168 0
1 -244 -142 0
1 -244 -257 0
1 -244 178 0
1 -244 170 0
1 -244 -160 0
1 -244 180 0
1 -246 164 0
1 246 -159 0
1 246 -257 0
1 -246 60 0
1 246 -258 0
1 246 247 0
1 153 -251 0
1 -153 -168 0
1 153 62 0
1 153 -161 0
1 -153 259 0
1 -248 -260 0
1 -248 -153 0
1 248 159 0
1 248 -257 0
1 -248 -261 0
1 -248 66 0
1 -248 -160 0
1 164 108 0
1 -164 -244 0
1 -164 83 0
1 164 -255 0
1 164 -86 0
1 164 -96 0
1 166 -262 0
1 -166 157 0
1 166 83 0
1 166 109 0
1 -166 246 0
1 166 86 0
1 -166 -158 0
1 -166 -96 0
1 -180 178 0
1 -180 -246 0
1 180 -263 0
1 180 171 0
1 -180 -177 0
1 180 96 0
1 -178 244 0
1 -178 262 0
1 -178 256 0
1 178 180 0
1 -178 -169 0
1 178 -174 0
1 178 -259 0
1 178 94 0
1 178 246 0
1 -178 -263 0
1 178 -167 0
1 -178 -96 0
1 256 164 0
1 -256 168 0
1 -256 -72 0
1 -256 192 0
1 256 264 0
1 -256 -173 0
1 -256 166 0
1 256 -170 0
1 -256 -265 0
1 -256 -180 0
1 263 -164 0
1 -263 -192 0
1 -263 -256 0
1 263 166 0
1 263 -170 0
1 263 265 0
1 263 -266 0
1 -262 164 0
1 -262 168 0
1 -262 267 0
1 -262 -268 0
1 262 -178 0
1 262 170 0
1 -262 265 0
1 262 269 0
1 255 -164 0
1 -255 -168 0
1 -255 -270 0
1 255 257 0
1 -255 -178 0
1 -255 -166 0
1 -255 -170 0
1 255 -77 0
1 -255 -271 0
1 255 -265 0
1 255 269 0
1 -255 -180 0
1 -176 -163 0
1 176 -173 0
1 -176 -165 0
1 176 90 0
1 -176 172 0
1 -173 -256 0
1 173 -257 0
1 -173 94 0
1 173 -90 0
1 173 -172 0
1 -173 263 0
1 -173 171 0
1 190 -106 0
1 190 -256 0
1 190 -169 0
1 -190 272 0
1 190 185 0
1 -190 171 0
1 190 269 0
1 190 -167 0
1 192 106 0
1 -192 -187 0
1 -192 -256 0
1 -192 -175 0
1 192 190 0
1 -192 -167 0
1 165 -273 0
1 -165 -183 0
1 -165 178 0
1 -165 -274 0
1 -165 190 0
1 165 176 0
1 167 273 0
1 -167 -197 0
1 -167 183 0
1 167 -192 0
1 167 173 0
1 -167 -165 0
1 167 -275 0
1 -167 198 0
1 -167 184 0
1 167 190 0
1 -167 158 0
1 167 -176 0
1 167 180 0
1 -169 -276 0
1 -169 -192 0
1 -169 -157 0
1 -169 -178 0
1 169 275 0
1 -169 -277 0
1 169 -180 0
1 -171 -273 0
1 -171 173 0
1 -171 169 0
1 -171 275 0
1 -171 86 0
1 171 -190 0
1 184 -278 0
1 -184 165 0
1 -184 -175 0
1 -184 -172 0
1 -183 -179 0
1 -183 278 0
1 183 267 0
1 -183 272 0
1 -183 102 0
1 -198 179 0
1 -198 278 0
1 -198 -277 0
1 198 175 0
1 198 -112 0
1 198 167 0
1 197 -179 0
1 -197 278 0
1 197 -191 0
1 -197 -276 0
1 197 -279 0
1 197 165 0
1 -197 189 0
1 -197 280 0
1 175 281 0
1 -175 -282 0
1 -175 -194 0
1 -175 197 0
1 -175 -192 0
1 -175 -283 0
1 -175 90 0
1 175 198 0
1 278 281 0
1 -278 197 0
1 -278 -183 0
1 -278 192 0
1 278 -284 0
1 -278 -283 0
1 278 -196 0
1 -278 184 0
1 272 281 0
1 -272 285 0
1 272 273 0
1 -272 286 0
1 272 -184 0
1 -179 -281 0
1 179 -273 0
1 179 197 0
1 179 -192 0
1 179 -272 0
1 -179 275 0
1 179 184 0
1 -196 278 0
1 196 -194 0
1 196 191 0
1 196 -193 0
1 -194 278 0
1 194 193 0
1 -194 -175 0
1 -194 -196 0
1 194 189 0
1 194 -280 0
1 -194 112 0
1 194 -182 0
1 -283 -282 0
1 283 287 0
1 -283 175 0
1 283 -189 0
1 -283 -280 0
1 283 -195 0
1 -282 -285 0
1 282 200 0
1 282 175 0
1 -282 -189 0
1 282 199 0
1 -280 -197 0
1 -280 279 0
1 280 283 0
1 -280 -196 0
1 280 198 0
1 -280 -102 0
1 -280 -288 0
1 -279 282 0
1 279 -289 0
1 279 -283 0
1 279 -196 0
1 -279 -280 0
1 189 -282 0
1 189 191 0
1 -189 197 0
1 189 -283 0
1 189 -196 0
1 -189 198 0
1 189 -290 0
1 191 281 0
1 191 -106 0
1 -191 -291 0
1 191 -284 0
1 191 283 0
1 191 -189 0
1 -292 -279 0
1 292 -200 0
1 -292 199 0
1 -292 195 0
1 293 281 0
1 293 279 0
1 293 -200 0
1 -293 -199 0
1 -289 279 0
1 -289 200 0
1 -289 287 0
1 289 -280 0
1 289 199 0
1 -289 -195 0
1 289 288 0
1 -288 -200 0
1 288 287 0
1 288 199 0
1 195 -282 0
1 195 -289 0
1 195 292 0
1 -195 -288 0
1 -195 293 0
1 -287 282 0
1 -287 -288 0
1 199 200 0
1 199 -283 0
1 200 282 0
1 200 181 0
1 200 289 0
1 -200 199 0
1 200 288 0
1 -219 214 0
1 -219 218 0
1 -219 -294 0
1 219 213 0
1 -219 -295 0
1 218 -139 0
1 -218 -214 0
1 218 -211 0
1 -218 -207 0
1 218 216 0
1 218 219 0
1 -218 212 0
1 218 -209 0
1 296 214 0
1 -296 -220 0
1 -296 -294 0
1 -296 -211 0
1 -296 297 0
1 296 224 0
1 296 -216 0
1 -296 295 0
1 296 212 0
1 -296 -221 0
1 -233 214 0
1 233 -294 0
1 233 211 0
1 233 -296 0
1 233 221 0
1 -233 -150 0
1 -211 233 0
1 211 218 0
1 -211 -202 0
1 211 223 0
1 211 298 0
1 211 -296 0
1 -211 -219 0
1 -211 -212 0
1 -212 -233 0
1 -212 218 0
1 212 236 0
1 -212 299 0
1 -294 -233 0
1 -294 218 0
1 -294 -300 0
1 294 296 0
1 -294 219 0
1 294 295 0
1 -295 233 0
1 295 294 0
1 -295 219 0
1 -295 203 0
1 -223 -214 0
1 -223 301 0
1 -223 212 0
1 -227 215 0
1 -227 -229 0
1 227 -223 0
1 227 216 0
1 -227 -217 0
1 227 -128 0
1 -227 212 0
1 227 -145 0
1 227 -221 0
1 236 220 0
1 236 -228 0
1 -236 229 0
1 236 -156 0
1 -236 211 0
1 -236 297 0
1 236 301 0
1 -236 212 0
1 -299 220 0
1 -299 229 0
1 299 211 0
1 -299 226 0
1 299 155 0
1 -299 212 0
1 -301 -220 0
1 301 245 0
1 301 234 0
1 -301 -236 0
1 -301 -223 0
1 301 -302 0
1 220 -303 0
1 220 -234 0
1 -220 236 0
1 -220 223 0
1 220 -301 0
1 220 243 0
1 220 -299 0
1 -220 227 0
1 -297 233 0
1 297 -223 0
1 297 -304 0
1 297 -305 0
1 297 -227 0
1 221 233 0
1 221 -303 0
1 -221 -223 0
1 221 297 0
1 -221 -296 0
1 -221 -299 0
1 221 208 0
1 221 -227 0
1 234 220 0
1 -234 228 0
1 234 -306 0
1 -234 -229 0
1 234 222 0
1 -234 152 0
1 234 226 0
1 -234 225 0
1 234 128 0
1 234 -126 0
1 -242 -228 0
1 242 306 0
1 -242 -234 0
1 242 -231 0
1 -242 226 0
1 242 -154 0
1 -245 220 0
1 245 228 0
1 -245 -237 0
1 245 -161 0
1 -245 -307 0
1 245 -230 0
1 245 226 0
1 -245 225 0
1 -245 -235 0
1 243 238 0
1 -243 245 0
1 -243 225 0
1 243 -247 0
1 -243 235 0
1 -243 231 0
1 225 -308 0
1 -225 -253 0
1 225 -245 0
1 225 -234 0
1 225 -236 0
1 225 -309 0
1 -306 -215 0
1 -306 310 0
1 306 -234 0
1 -306 -311 0
1 306 252 0
1 306 -241 0
1 -306 225 0
1 306 -243 0
1 306 -299 0
1 -226 228 0
1 226 -308 0
1 -226 -303 0
1 226 311 0
1 -226 216 0
1 226 -312 0
1 -226 305 0
1 228 214 0
1 228 -303 0
1 -228 -245 0
1 -228 226 0
1 228 -313 0
1 228 -243 0
1 228 -299 0
1 239 -306 0
1 -239 238 0
1 239 -230 0
1 -239 225 0
1 239 231 0
1 -239 232 0
1 241 306 0
1 -241 238 0
1 -241 230 0
1 -241 137 0
1 241 149 0
1 241 -160 0
1 241 -225 0
1 241 305 0
1 241 237 0
1 241 235 0
1 -241 232 0
1 -241 148 0
1 253 238 0
1 253 -307 0
1 -253 -314 0
1 -253 -149 0
1 253 252 0
1 -253 -235 0
1 -253 315 0
1 -252 253 0
1 -252 -240 0
1 252 170 0
1 252 -313 0
1 -252 315 0
1 -252 148 0
1 -235 -251 0
1 235 253 0
1 235 -239 0
1 -235 -307 0
1 -235 252 0
1 -235 -241 0
1 235 -126 0
1 235 -316 0
1 307 -260 0
1 307 -251 0
1 -307 239 0
1 -307 -222 0
1 -307 -245 0
1 -307 -317 0
1 -307 -252 0
1 -307 241 0
1 307 -235 0
1 -237 239 0
1 237 -238 0
1 -237 317 0
1 -237 -318 0
1 237 -128 0
1 238 -319 0
1 238 253 0
1 -238 229 0
1 -238 -245 0
1 -238 -318 0
1 251 144 0
1 -251 308 0
1 251 153 0
1 -251 -307 0
1 -251 240 0
1 251 149 0
1 -251 -147 0
1 -251 261 0
1 -251 315 0
1 261 251 0
1 261 -153 0
1 261 -307 0
1 261 240 0
1 261 166 0
1 -261 311 0
1 -261 -248 0
1 261 -315 0
1 -260 -307 0
1 260 -254 0
1 260 249 0
1 -260 -248 0
1 -260 -235 0
1 260 -315 0
1 -260 180 0
1 259 -260 0
1 259 -320 0
1 259 307 0
1 -259 -178 0
1 -259 -318 0
1 259 249 0
1 -259 248 0
1 -259 235 0
1 -259 -315 0
1 -321 -253 0
1 321 257 0
1 -321 261 0
1 321 -252 0
1 321 322 0
1 321 323 0
1 240 251 0
1 -240 270 0
1 -240 137 0
1 240 -257 0
1 -240 324 0
1 -240 259 0
1 -240 -261 0
1 -240 -322 0
1 240 -269 0
1 -240 321 0
1 -315 -253 0
1 -315 325 0
1 315 314 0
1 315 -317 0
1 315 259 0
1 315 261 0
1 315 322 0
1 315 -231 0
1 314 -260 0
1 -314 322 0
1 -314 326 0
1 257 320 0
1 257 153 0
1 -257 -244 0
1 257 -262 0
1 -257 -173 0
1 257 -240 0
1 -257 254 0
1 -257 -249 0
1 257 248 0
1 -257 246 0
1 269 -250 0
1 269 320 0
1 269 -262 0
1 269 270 0
1 269 -240 0
1 -269 -327 0
1 269 -258 0
1 -269 -328 0
1 269 -321 0
1 -270 320 0
1 270 -329 0
1 270 -262 0
1 -270 192 0
1 270 -240 0
1 -270 327 0
1 -270 269 0
1 320 -270 0
1 -320 -330 0
1 320 -265 0
1 249 -320 0
1 249 -331 0
1 -249 276 0
1 -249 267 0
1 -249 270 0
1 249 147 0
1 249 277 0
1 -249 -265 0
1 250 -260 0
1 250 332 0
1 250 331 0
1 -250 -333 0
1 -250 325 0
1 250 270 0
1 -254 -325 0
1 -254 149 0
1 254 -259 0
1 -254 -334 0
1 254 -330 0
1 -254 -269 0
1 265 -335 0
1 265 -169 0
1 265 249 0
1 265 -327 0
1 -265 -258 0
1 265 -255 0
1 -267 263 0
1 -267 -329 0
1 -267 262 0
1 267 -335 0
1 -267 -169 0
1 267 327 0
1 -267 255 0
1 -267 171 0
1 277 -329 0
1 -277 -276 0
1 -277 -335 0
1 -277 268 0
1 -277 264 0
1 277 -169 0
1 -277 -327 0
1 -277 198 0
1 -277 -258 0
1 -277 171 0
1 277 271 0
1 276 329 0
1 -276 264 0
1 -276 -169 0
1 276 327 0
1 -276 -266 0
1 -335 285 0
1 335 273 0
1 335 276 0
1 335 -244 0
1 -335 267 0
1 -335 -286 0
1 -335 -275 0
1 335 -258 0
1 -335 -269 0
1 258 336 0
1 258 285 0
1 -258 273 0
1 -258 -270 0
1 258 -337 0
1 -258 -286 0
1 -258 -275 0
1 -329 -331 0
1 329 -270 0
1 -329 -337 0
1 329 338 0
1 -329 327 0
1 329 277 0
1 -329 269 0
1 327 -329 0
1 327 330 0
1 -327 277 0
1 327 -265 0
1 275 268 0
1 275 -264 0
1 275 -169 0
1 275 -165 0
1 275 196 0
1 -275 -258 0
1 -275 -271 0
1 275 -266 0
1 275 171 0
1 -275 167 0
1 273 -194 0
1 273 331 0
1 -273 169 0
1 -273 -165 0
1 273 167 0
1 286 179 0
1 286 285 0
1 286 -268 0
1 286 -339 0
1 -286 274 0
1 286 272 0
1 286 283 0
1 -286 338 0
1 286 -266 0
1 -286 340 0
1 286 -341 0
1 -285 -179 0
1 285 -335 0
1 285 274 0
1 -285 -286 0
1 285 -258 0
1 285 341 0
1 264 -273 0
1 -264 -276 0
1 264 -256 0
1 264 -284 0
1 264 286 0
1 -266 -276 0
1 -266 286 0
1 266 263 0
1 -268 -285 0
1 -268 -273 0
1 268 276 0
1 268 342 0
1 268 337 0
1 -268 -286 0
1 -268 -277 0
1 268 343 0
1 271 -285 0
1 -271 342 0
1 -271 275 0
1 271 343 0
1 -284 -281 0
1 -284 -264 0
1 284 272 0
1 284 175 0
1 -284 -341 0
1 281 179 0
1 -281 -274 0
1 -281 272 0
1 -281 -175 0
1 -281 189 0
1 -281 340 0
1 -281 -341 0
1 -281 -293 0
1 -291 -191 0
1 -291 264 0
1 -291 -339 0
1 -291 274 0
1 -291 340 0
1 -290 -264 0
1 -290 339 0
1 -290 -291 0
1 -290 266 0
1 -290 288 0
1 -290 -341 0
1 274 -281 0
1 274 -165 0
1 274 -284 0
1 -274 290 0
1 341 281 0
1 -341 274 0
1 -341 -284 0
1 -341 286 0
1 341 -167 0
1 -341 290 0
1 339 -281 0
1 339 285 0
1 339 -169 0
1 -339 -291 0
1 339 340 0
1 -339 286 0
1 340 285 0
1 340 -339 0
1 340 291 0
1 -340 -286 0
1 -340 171 0
1 340 -290 0
1 -303 -220 0
1 303 -228 0
1 -303 -239 0
1 -303 -300 0
1 303 -298 0
1 303 -297 0
1 303 305 0
1 303 344 0
1 303 345 0
1 -303 221 0
1 305 220 0
1 305 -303 0
1 -305 297 0
1 -305 -301 0
1 -305 226 0
1 -305 241 0
1 -305 345 0
1 -346 -347 0
1 -346 -253 0
1 346 -300 0
1 346 -302 0
1 346 313 0
1 -346 -344 0
1 346 -348 0
1 -313 228 0
1 -313 300 0
1 313 -304 0
1 -313 302 0
1 313 252 0
1 313 -226 0
1 313 -345 0
1 313 -348 0
1 298 -319 0
1 -298 308 0
1 -298 -346 0
1 -298 318 0
1 -298 -349 0
1 -298 345 0
1 -345 308 0
1 -345 298 0
1 345 318 0
1 345 -313 0
1 345 -305 0
1 -345 -350 0
1 -300 294 0
1 300 351 0
1 300 -313 0
1 -344 303 0
1 -344 -313 0
1 308 -251 0
1 -308 306 0
1 -308 -238 0
1 308 -225 0
1 -308 -237 0
1 308 -345 0
1 311 -347 0
1 -311 -308 0
1 311 306 0
1 311 304 0
1 311 -226 0
1 -311 -225 0
1 311 345 0
1 -319 -352 0
1 -319 312 0
1 -319 -348 0
1 318 347 0
1 318 238 0
1 -318 -298 0
1 318 -237 0
1 -318 -345 0
1 302 308 0
1 -302 353 0
1 302 301 0
1 302 311 0
1 302 -354 0
1 -302 313 0
1 -302 328 0
1 -347 220 0
1 -347 -355 0
1 -347 -313 0
1 347 328 0
1 -304 319 0
1 304 346 0
1 -304 -318 0
1 304 311 0
1 -304 356 0
1 -348 353 0
1 -348 304 0
1 -348 -311 0
1 -348 -356 0
1 -326 -310 0
1 326 -317 0
1 -326 302 0
1 326 -312 0
1 326 -237 0
1 -326 -235 0
1 317 -352 0
1 -317 307 0
1 317 257 0
1 -317 -312 0
1 317 326 0
1 328 347 0
1 -328 310 0
1 -328 -357 0
1 -328 -358 0
1 328 314 0
1 328 -312 0
1 -328 -309 0
1 -328 -359 0
1 328 -315 0
1 -328 -269 0
1 -360 -347 0
1 360 -352 0
1 -360 -310 0
1 -360 -357 0
1 -360 -358 0
1 360 -314 0
1 360 302 0
1 -360 309 0
1 360 315 0
1 360 328 0
1 309 319 0
1 309 -361 0
1 -309 -325 0
1 309 360 0
1 -309 -317 0
1 -309 362 0
1 309 -363 0
1 309 -328 0
1 310 -319 0
1 310 -364 0
1 -310 325 0
1 310 360 0
1 310 318 0
1 310 363 0
1 -310 322 0
1 -310 -326 0
1 -312 319 0
1 312 352 0
1 -312 -364 0
1 312 -365 0
1 312 318 0
1 -312 226 0
1 -312 366 0
1 312 328 0
1 352 -319 0
1 -352 228 0
1 -352 364 0
1 -352 365 0
1 352 -353 0
1 352 360 0
1 -352 317 0
1 -352 318 0
1 -352 328 0
1 352 326 0
1 322 250 0
1 322 -314 0
1 322 -359 0
1 -322 240 0
1 322 316 0
1 -322 -265 0
1 -322 356 0
1 322 315 0
1 -322 321 0
1 325 250 0
1 -325 -310 0
1 -325 357 0
1 -325 -353 0
1 325 314 0
1 -325 358 0
1 325 -240 0
1 -325 359 0
1 -325 -316 0
1 325 -315 0
1 325 -321 0
1 -363 250 0
1 -363 -324 0
1 363 309 0
1 -363 -277 0
1 -363 -366 0
1 363 -316 0
1 -363 -367 0
1 363 323 0
1 333 250 0
1 333 -310 0
1 -333 -357 0
1 -333 -358 0
1 333 -368 0
1 -333 -324 0
1 -333 254 0
1 333 309 0
1 333 -359 0
1 -333 316 0
1 -333 -367 0
1 -316 369 0
1 316 370 0
1 -316 -331 0
1 316 -358 0
1 -316 -360 0
1 316 -371 0
1 -316 -338 0
1 -316 -363 0
1 316 328 0
1 -358 370 0
1 358 -325 0
1 358 -360 0
1 359 372 0
1 -359 -237 0
1 359 325 0
1 -359 357 0
1 -359 371 0
1 359 -363 0
1 -359 -322 0
1 -357 372 0
1 -357 -364 0
1 357 238 0
1 357 -360 0
1 -357 -371 0
1 357 -373 0
1 357 -362 0
1 357 359 0
1 357 322 0
1 330 250 0
1 330 -320 0
1 -330 331 0
1 330 -368 0
1 -330 -362 0
1 330 -316 0
1 -330 367 0
1 331 320 0
1 331 273 0
1 -331 -364 0
1 -331 -368 0
1 331 -324 0
1 -331 330 0
1 -331 -367 0
1 338 -374 0
1 338 -329 0
1 -338 368 0
1 -338 334 0
1 -338 323 0
1 370 332 0
1 370 -329 0
1 -370 -358 0
1 -370 -368 0
1 -370 324 0
1 370 -375 0
1 370 -338 0
1 -370 -316 0
1 370 -323 0
1 -323 -370 0
1 -323 331 0
1 -323 -333 0
1 -323 342 0
1 323 -337 0
1 -323 -330 0
1 323 -363 0
1 -323 321 0
1 323 -343 0
1 -324 336 0
1 -324 331 0
1 324 -240 0
1 -324 342 0
1 -324 -330 0
1 -324 -343 0
1 367 376 0
1 367 331 0
1 367 -333 0
1 367 -368 0
1 -367 377 0
1 -367 -315 0
1 368 369 0
1 368 -370 0
1 368 314 0
1 368 377 0
1 -368 -371 0
1 368 330 0
1 -368 -363 0
1 -337 332 0
1 337 374 0
1 337 -268 0
1 337 375 0
1 -337 371 0
1 337 327 0
1 -337 -323 0
1 -336 -281 0
1 336 332 0
1 -336 -329 0
1 336 -335 0
1 336 -334 0
1 336 -271 0
1 342 -374 0
1 342 324 0
1 342 -291 0
1 -342 334 0
1 -342 -377 0
1 -343 374 0
1 343 -268 0
1 343 324 0
1 -343 -342 0
1 -343 271 0
1 -343 323 0
1 -374 -320 0
1 374 -337 0
1 374 375 0
1 -374 -338 0
1 375 342 0
1 375 249 0
1 375 337 0
1 332 250 0
1 -332 370 0
1 -332 -342 0
1 332 -334 0
1 -332 338 0
1 334 -370 0
1 -334 -254 0
1 -334 338 0
1 -334 -343 0
1 356 347 0
1 -356 352 0
1 -356 353 0
1 -356 351 0
1 356 -349 0
1 356 -312 0
1 356 -350 0
1 -353 -352 0
1 353 325 0
1 353 -351 0
1 -353 349 0
1 -353 -304 0
1 353 -356 0
1 353 -350 0
1 366 -355 0
1 366 -352 0
1 366 -365 0
1 -366 351 0
1 366 354 0
1 -366 312 0
1 -366 -378 0
1 -366 350 0
1 -365 379 0
1 365 -349 0
1 -365 366 0
1 -365 378 0
1 -365 -350 0
1 -349 -364 0
1 349 -350 0
1 349 366 0
1 349 -356 0
1 350 -353 0
1 350 -349 0
1 -350 -362 0
1 350 -366 0
1 -350 356 0
1 -350 345 0
1 351 366 0
1 351 -356 0
1 -351 -378 0
1 -378 353 0
1 -378 -344 0
1 378 356 0
1 -362 -310 0
1 -362 -364 0
1 362 357 0
1 -362 -349 0
1 -362 359 0
1 -362 -350 0
1 -364 379 0
1 364 352 0
1 -364 331 0
1 -364 310 0
1 -364 -349 0
1 -364 380 0
1 -364 354 0
1 364 309 0
1 364 362 0
1 364 359 0
1 373 355 0
1 -373 -372 0
1 373 -381 0
1 -373 -382 0
1 373 380 0
1 373 354 0
1 373 383 0
1 373 361 0
1 372 -379 0
1 -372 355 0
1 372 357 0
1 -372 -380 0
1 -372 -350 0
1 -354 -369 0
1 -354 -372 0
1 354 -365 0
1 -354 -302 0
1 -354 371 0
1 -354 -373 0
1 -354 -366 0
1 355 376 0
1 -355 347 0
1 -355 369 0
1 355 -372 0
1 355 377 0
1 355 354 0
1 355 373 0
1 355 -366 0
1 -380 -364 0
1 380 373 0
1 -380 -362 0
1 -379 -372 0
1 -379 -364 0
1 379 365 0
1 -379 366 0
1 371 -369 0
1 371 -355 0
1 371 -358 0
1 -371 368 0
1 371 354 0
1 -371 -361 0
1 -369 336 0
1 369 358 0
1 369 -368 0
1 369 -354 0
1 369 383 0
1 -377 355 0
1 377 -368 0
1 -377 -342 0
1 377 -354 0
1 377 383 0
1 -377 361 0
1 -377 -367 0
1 -376 355 0
1 -376 -381 0
1 -376 -382 0
1 -376 354 0
1 -376 -383 0
1 376 -361 0
1 -376 367 0
1 361 -376 0
1 361 369 0
1 -361 -372 0
1 361 -382 0
1 -361 377 0
1 361 309 0
1 382 -376 0
1 382 -369 0
1 382 -372 0
1 -382 310 0
1 382 -377 0
1 -382 -361 0
1 -383 -376 0
1 383 381 0
1 -383 377 0
1 383 373 0
1 -381 -352 0
1 -381 -371 0
1 -381 373 0
1 381 -383 0
